
        $ From http://www.csplib.org/Problems/prob009/data/helmut.pdf
        $ Problem number 173
        $ Sequence length : 25
        language ESSENCE' 1.0
        letting sizemaster be 544
        letting sizes be sequence(6,8,20,21,23,41,42,48,59,61,77,80,81,85,90,92,93,102,115,132,139,168,198,207,244)
        